liftTabLpTest.sol
# Objective value = 0
C2 0
C3 0
C4 0
C5 0.25
CO 0.125
C1 0
C0 1
C6 0
C7 0
